c max 2 3 4 5 6 7 8 9 10 11 0
c max 12 13 14 15 16 17 18 19 20 21 0
c max 22 23 24 25 26 27 28 29 30 31 0
c max 32 33 0
c ind 158 127 156 157 154 155 152 153 150 151 0
c ind 148 149 146 147 144 145 142 143 140 141 0
c ind 138 139 136 137 134 135 132 133 130 131 0
c ind 66 129 0
p cnf 333 293
1 0
64 -66 0
2 -66 0
-2 -64 66 0
63 -67 0
3 -67 0
-3 -63 67 0
62 -68 0
4 -68 0
-4 -62 68 0
61 -69 0
5 -69 0
-5 -61 69 0
60 -70 0
6 -70 0
-6 -60 70 0
59 -71 0
7 -71 0
-7 -59 71 0
58 -72 0
8 -72 0
-8 -58 72 0
57 -73 0
9 -73 0
-9 -57 73 0
56 -74 0
10 -74 0
-10 -56 74 0
55 -75 0
11 -75 0
-11 -55 75 0
54 -76 0
12 -76 0
-12 -54 76 0
53 -77 0
13 -77 0
-13 -53 77 0
52 -78 0
14 -78 0
-14 -52 78 0
51 -79 0
15 -79 0
-15 -51 79 0
50 -80 0
16 -80 0
-16 -50 80 0
49 -81 0
17 -81 0
-17 -49 81 0
48 -82 0
18 -82 0
-18 -48 82 0
47 -83 0
19 -83 0
-19 -47 83 0
46 -84 0
20 -84 0
-20 -46 84 0
45 -85 0
21 -85 0
-21 -45 85 0
44 -86 0
22 -86 0
-22 -44 86 0
43 -87 0
23 -87 0
-23 -43 87 0
42 -88 0
24 -88 0
-24 -42 88 0
41 -89 0
25 -89 0
-25 -41 89 0
40 -90 0
26 -90 0
-26 -40 90 0
39 -91 0
27 -91 0
-27 -39 91 0
38 -92 0
28 -92 0
-28 -38 92 0
37 -93 0
29 -93 0
-29 -37 93 0
36 -94 0
30 -94 0
-30 -36 94 0
35 -95 0
31 -95 0
-31 -35 95 0
34 -96 0
32 -96 0
-32 -34 96 0
65 -97 0
2 -97 0
-2 -65 97 0
64 -98 0
3 -98 0
-3 -64 98 0
63 -99 0
4 -99 0
-4 -63 99 0
62 -100 0
5 -100 0
-5 -62 100 0
61 -101 0
6 -101 0
-6 -61 101 0
60 -102 0
7 -102 0
-7 -60 102 0
59 -103 0
8 -103 0
-8 -59 103 0
58 -104 0
9 -104 0
-9 -58 104 0
57 -105 0
10 -105 0
-10 -57 105 0
56 -106 0
11 -106 0
-11 -56 106 0
55 -107 0
12 -107 0
-12 -55 107 0
54 -108 0
13 -108 0
-13 -54 108 0
53 -109 0
14 -109 0
-14 -53 109 0
52 -110 0
15 -110 0
-15 -52 110 0
51 -111 0
16 -111 0
-16 -51 111 0
50 -112 0
17 -112 0
-17 -50 112 0
49 -113 0
18 -113 0
-18 -49 113 0
48 -114 0
19 -114 0
-19 -48 114 0
47 -115 0
20 -115 0
-20 -47 115 0
46 -116 0
21 -116 0
-21 -46 116 0
45 -117 0
22 -117 0
-22 -45 117 0
44 -118 0
23 -118 0
-23 -44 118 0
43 -119 0
24 -119 0
-24 -43 119 0
42 -120 0
25 -120 0
-25 -42 120 0
41 -121 0
26 -121 0
-26 -41 121 0
40 -122 0
27 -122 0
-27 -40 122 0
39 -123 0
28 -123 0
-28 -39 123 0
38 -124 0
29 -124 0
-29 -38 124 0
37 -125 0
30 -125 0
-30 -37 125 0
36 -126 0
31 -126 0
-31 -36 126 0
35 -127 0
32 -127 0
-32 -35 127 0
34 -128 0
33 -128 0
-33 -34 128 0
-67 129 0
-97 129 0
67 97 -129 0
-68 130 0
-98 130 0
68 98 -130 0
-69 131 0
-99 131 0
69 99 -131 0
-70 132 0
-100 132 0
70 100 -132 0
-71 133 0
-101 133 0
71 101 -133 0
-72 134 0
-102 134 0
72 102 -134 0
-73 135 0
-103 135 0
73 103 -135 0
-74 136 0
-104 136 0
74 104 -136 0
-75 137 0
-105 137 0
75 105 -137 0
-76 138 0
-106 138 0
76 106 -138 0
-77 139 0
-107 139 0
77 107 -139 0
-78 140 0
-108 140 0
78 108 -140 0
-79 141 0
-109 141 0
79 109 -141 0
-80 142 0
-110 142 0
80 110 -142 0
-81 143 0
-111 143 0
81 111 -143 0
-82 144 0
-112 144 0
82 112 -144 0
-83 145 0
-113 145 0
83 113 -145 0
-84 146 0
-114 146 0
84 114 -146 0
-85 147 0
-115 147 0
85 115 -147 0
-86 148 0
-116 148 0
86 116 -148 0
-87 149 0
-117 149 0
87 117 -149 0
-88 150 0
-118 150 0
88 118 -150 0
-89 151 0
-119 151 0
89 119 -151 0
-90 152 0
-120 152 0
90 120 -152 0
-91 153 0
-121 153 0
91 121 -153 0
-92 154 0
-122 154 0
92 122 -154 0
-93 155 0
-123 155 0
93 123 -155 0
-94 156 0
-124 156 0
94 124 -156 0
-95 157 0
-125 157 0
95 125 -157 0
-96 158 0
-126 158 0
96 126 -158 0
-327 -329 -331 0
327 329 -331 0
-327 329 331 0
327 -329 331 0
-328 -330 -332 0
328 330 -332 0
-328 330 332 0
328 -330 332 0
-331 -333 0
-332 -333 0
331 332 333 0
-1 333 0
1 -333 0
c __CPROVER_malloc_is_new_array#1 FALSE
c f::1::res!0@1#1 295 296 297 298 299 300 301 302 303 304 305 306 307 308 309 310 311 312 313 314 315 316 317 318 319 320 321 322 323 324 325 326
c f::1::b1!0@1#1 255 256 257 258 259 260 261 262
c f::1::mask!0@1#1 191 192 193 194 195 196 197 198 199 200 201 202 203 204 205 206 207 208 209 210 211 212 213 214 215 216 217 218 219 220 221 222 223 224 225 226 227 228 229 230 231 232 233 234 235 236 237 238 239 240 241 242 243 244 245 246 247 248 249 250 251 252 253 254
c main::1::output0!0@1#2 158 127 156 157 154 155 152 153 150 151 148 149 146 147 144 145 142 143 140 141 138 139 136 137 134 135 132 133 130 131 66 129
c f#return_value!0#1 158 127 156 157 154 155 152 153 150 151 148 149 146 147 144 145 142 143 140 141 138 139 136 137 134 135 132 133 130 131 66 129
c f::1::res!0@1#10 158 127 156 157 154 155 152 153 150 151 148 149 146 147 144 145 142 143 140 141 138 139 136 137 134 135 132 133 130 131 66 129
c main::1::output0!0@1#1 159 160 161 162 163 164 165 166 167 168 169 170 171 172 173 174 175 176 177 178 179 180 181 182 183 184 185 186 187 188 189 190
c f::1::res!0@1#9 142 143 140 141 138 139 136 137 134 135 132 133 130 131 66 129 158 127 156 157 154 155 152 153 150 151 148 149 146 147 144 145
c f::1::res!0@1#6 66 129 130 131 132 133 134 135 136 137 138 139 140 141 142 143 144 145 146 147 148 149 150 151 152 153 154 155 156 157 158 127
c f::1::res!0@1#5 65 64 63 62 61 60 59 58 57 56 55 54 53 52 51 50 49 48 47 46 45 44 43 42 41 40 39 38 37 36 35 34
c f::1::res!0@1#4 57 56 55 54 53 52 51 50 49 48 47 46 45 44 43 42 41 40 39 38 37 36 35 34 FALSE FALSE FALSE FALSE FALSE FALSE FALSE FALSE
c f::1::res!0@1#3 49 48 47 46 45 44 43 42 41 40 39 38 37 36 35 34 FALSE FALSE FALSE FALSE FALSE FALSE FALSE FALSE FALSE FALSE FALSE FALSE FALSE FALSE FALSE FALSE
c f::1::res!0@1#2 41 40 39 38 37 36 35 34 FALSE FALSE FALSE FALSE FALSE FALSE FALSE FALSE FALSE FALSE FALSE FALSE FALSE FALSE FALSE FALSE FALSE FALSE FALSE FALSE FALSE FALSE FALSE FALSE
c f::1::b3!0@1#3 49 48 47 46 45 44 43 42
c f::1::b2!0@1#3 57 56 55 54 53 52 51 50
c __CPROVER_thread_id!0#1 FALSE FALSE FALSE FALSE FALSE FALSE FALSE FALSE FALSE FALSE FALSE FALSE FALSE FALSE FALSE FALSE FALSE FALSE FALSE FALSE FALSE FALSE FALSE FALSE FALSE FALSE FALSE FALSE FALSE FALSE FALSE FALSE FALSE FALSE FALSE FALSE FALSE FALSE FALSE FALSE FALSE FALSE FALSE FALSE FALSE FALSE FALSE FALSE FALSE FALSE FALSE FALSE FALSE FALSE FALSE FALSE FALSE FALSE FALSE FALSE FALSE FALSE FALSE FALSE
c f::1::t!0@1#3 49 48 47 46 45 44 43 42
c __CPROVER_rounding_mode!0#1 FALSE FALSE FALSE FALSE FALSE FALSE FALSE FALSE FALSE FALSE FALSE FALSE FALSE FALSE FALSE FALSE FALSE FALSE FALSE FALSE FALSE FALSE FALSE FALSE FALSE FALSE FALSE FALSE FALSE FALSE FALSE FALSE
c f::1::b1!0@1#3 65 64 63 62 61 60 59 58
c f::secret!0@1#1 34 35 36 37 38 39 40 41 42 43 44 45 46 47 48 49 50 51 52 53 54 55 56 57 58 59 60 61 62 63 64 65
c f::1::mask!0@1#2 FALSE FALSE FALSE FALSE TRUE FALSE FALSE FALSE TRUE FALSE FALSE FALSE FALSE TRUE FALSE FALSE FALSE TRUE FALSE FALSE FALSE FALSE FALSE FALSE FALSE FALSE FALSE FALSE FALSE FALSE FALSE FALSE FALSE FALSE FALSE FALSE FALSE FALSE FALSE FALSE FALSE FALSE FALSE FALSE FALSE FALSE FALSE FALSE FALSE FALSE FALSE FALSE FALSE FALSE FALSE FALSE FALSE FALSE FALSE FALSE FALSE FALSE FALSE FALSE
c f::1::res!0@1#8 134 135 132 133 130 131 66 129 142 143 140 141 138 139 136 137 150 151 148 149 146 147 144 145 158 127 156 157 154 155 152 153
c main::1::secret0!0@1#1 34 35 36 37 38 39 40 41 42 43 44 45 46 47 48 49 50 51 52 53 54 55 56 57 58 59 60 61 62 63 64 65
c f::public!0@1#1 2 3 4 5 6 7 8 9 10 11 12 13 14 15 16 17 18 19 20 21 22 23 24 25 26 27 28 29 30 31 32 33
c f::1::b4!0@1#3 41 40 39 38 37 36 35 34
c f::1::res!0@1#7 130 131 66 129 134 135 132 133 138 139 136 137 142 143 140 141 146 147 144 145 150 151 148 149 154 155 152 153 158 127 156 157
c main::1::public!0@1#1 2 3 4 5 6 7 8 9 10 11 12 13 14 15 16 17 18 19 20 21 22 23 24 25 26 27 28 29 30 31 32 33
c f::1::t!0@1#2 41 40 39 38 37 36 35 34
c __CPROVER_next_thread_id#1 FALSE FALSE FALSE FALSE FALSE FALSE FALSE FALSE FALSE FALSE FALSE FALSE FALSE FALSE FALSE FALSE FALSE FALSE FALSE FALSE FALSE FALSE FALSE FALSE FALSE FALSE FALSE FALSE FALSE FALSE FALSE FALSE FALSE FALSE FALSE FALSE FALSE FALSE FALSE FALSE FALSE FALSE FALSE FALSE FALSE FALSE FALSE FALSE FALSE FALSE FALSE FALSE FALSE FALSE FALSE FALSE FALSE FALSE FALSE FALSE FALSE FALSE FALSE FALSE
c f::1::b4!0@1#2 58 59 60 61 62 63 64 65
c f::1::t!0@1#1 287 288 289 290 291 292 293 294
c __CPROVER_pipe_count#1 FALSE FALSE FALSE FALSE FALSE FALSE FALSE FALSE FALSE FALSE FALSE FALSE FALSE FALSE FALSE FALSE FALSE FALSE FALSE FALSE FALSE FALSE FALSE FALSE FALSE FALSE FALSE FALSE FALSE FALSE FALSE FALSE
c __CPROVER_malloc_size#1 FALSE FALSE FALSE FALSE FALSE FALSE FALSE FALSE FALSE FALSE FALSE FALSE FALSE FALSE FALSE FALSE FALSE FALSE FALSE FALSE FALSE FALSE FALSE FALSE FALSE FALSE FALSE FALSE FALSE FALSE FALSE FALSE FALSE FALSE FALSE FALSE FALSE FALSE FALSE FALSE FALSE FALSE FALSE FALSE FALSE FALSE FALSE FALSE FALSE FALSE FALSE FALSE FALSE FALSE FALSE FALSE FALSE FALSE FALSE FALSE FALSE FALSE FALSE FALSE
c f::1::b3!0@1#2 50 51 52 53 54 55 56 57
c f::1::b4!0@1#1 279 280 281 282 283 284 285 286
c __CPROVER_memory_leak#1 FALSE FALSE FALSE FALSE FALSE FALSE FALSE FALSE FALSE FALSE FALSE FALSE FALSE FALSE FALSE FALSE FALSE FALSE FALSE FALSE FALSE FALSE FALSE FALSE FALSE FALSE FALSE FALSE FALSE FALSE FALSE FALSE FALSE FALSE FALSE FALSE FALSE FALSE FALSE FALSE FALSE FALSE FALSE FALSE FALSE FALSE FALSE FALSE FALSE FALSE FALSE FALSE FALSE FALSE FALSE FALSE FALSE FALSE FALSE FALSE FALSE FALSE FALSE FALSE
c f::1::b2!0@1#2 42 43 44 45 46 47 48 49
c f::1::b3!0@1#1 271 272 273 274 275 276 277 278
c __CPROVER_malloc_object#1 FALSE FALSE FALSE FALSE FALSE FALSE FALSE FALSE FALSE FALSE FALSE FALSE FALSE FALSE FALSE FALSE FALSE FALSE FALSE FALSE FALSE FALSE FALSE FALSE FALSE FALSE FALSE FALSE FALSE FALSE FALSE FALSE FALSE FALSE FALSE FALSE FALSE FALSE FALSE FALSE FALSE FALSE FALSE FALSE FALSE FALSE FALSE FALSE FALSE FALSE FALSE FALSE FALSE FALSE FALSE FALSE FALSE FALSE FALSE FALSE FALSE FALSE FALSE FALSE
c f::1::b1!0@1#2 34 35 36 37 38 39 40 41
c f::1::b2!0@1#1 263 264 265 266 267 268 269 270
c __CPROVER_deallocated#1 FALSE FALSE FALSE FALSE FALSE FALSE FALSE FALSE FALSE FALSE FALSE FALSE FALSE FALSE FALSE FALSE FALSE FALSE FALSE FALSE FALSE FALSE FALSE FALSE FALSE FALSE FALSE FALSE FALSE FALSE FALSE FALSE FALSE FALSE FALSE FALSE FALSE FALSE FALSE FALSE FALSE FALSE FALSE FALSE FALSE FALSE FALSE FALSE FALSE FALSE FALSE FALSE FALSE FALSE FALSE FALSE FALSE FALSE FALSE FALSE FALSE FALSE FALSE FALSE
c __CPROVER_dead_object#1 FALSE FALSE FALSE FALSE FALSE FALSE FALSE FALSE FALSE FALSE FALSE FALSE FALSE FALSE FALSE FALSE FALSE FALSE FALSE FALSE FALSE FALSE FALSE FALSE FALSE FALSE FALSE FALSE FALSE FALSE FALSE FALSE FALSE FALSE FALSE FALSE FALSE FALSE FALSE FALSE FALSE FALSE FALSE FALSE FALSE FALSE FALSE FALSE FALSE FALSE FALSE FALSE FALSE FALSE FALSE FALSE FALSE FALSE FALSE FALSE FALSE FALSE FALSE FALSE
